n = 107;
k = 2750;
price = [19, 16, 20, 22, 19, 22, 16, 24, 21, 19, 15, 15, 23, 17, 22, 24, 24, 15, 15, 16, 25, 17, 22, 17, 16, 17, 24, 15, 20, 22, 23, 22, 15, 23, 15, 22, 23, 23, 19, 21, 20, 24, 17, 24, 18, 17, 20, 24, 16, 25, 18, 16, 21, 23, 25, 18, 21, 24, 21, 25, 19, 15, 25, 22, 18, 23, 19, 23, 18, 20, 18, 25, 20, 19, 21, 23, 15, 19, 24, 22, 21, 18, 20, 20, 20, 19, 22, 20, 17, 24, 18, 19, 17, 15, 24, 21, 22, 18, 17, 20, 21, 22, 23, 16, 25, 25, 18];
m = 0;
buy = [];
free = [];
